NAME: teste4
TYPE: TSP
COMMENT: 4 cities around the world (Groetschel)
DIMENSION: 4
EDGE_WEIGHT_TYPE: GEO
DISPLAY_DATA_TYPE: COORD_DISPLAY
NODE_COORD_SECTION
0001 90.00 0.00
0002 71.17 -156.47
0003 64.51 -147.43
0004 61.13 -149.53
EOF
